(set-info :status sat)
(declare-const symbol_55 (_ BitVec 32))
(declare-const symbol_32 (_ BitVec 32))
(declare-const symbol_25 (_ BitVec 32))
(declare-const symbol_27 (_ BitVec 32))
(declare-const symbol_45 (_ BitVec 32))
(declare-const symbol_49 (_ BitVec 32))
(declare-const symbol_63 (_ BitVec 32))
(declare-const symbol_4 (_ BitVec 32))
(declare-const symbol_28 (_ BitVec 32))
(declare-const symbol_23 (_ BitVec 32))
(declare-const symbol_15 (_ BitVec 32))
(declare-const symbol_0 (_ BitVec 32))
(declare-const symbol_65 (_ BitVec 32))
(declare-const symbol_36 (_ BitVec 32))
(declare-const symbol_47 (_ BitVec 32))
(declare-const symbol_61 (_ BitVec 32))
(declare-const symbol_34 (_ BitVec 32))
(declare-const symbol_11 (_ BitVec 32))
(declare-const symbol_38 (_ BitVec 32))
(declare-const symbol_57 (_ BitVec 32))
(declare-const symbol_6 (_ BitVec 32))
(declare-const symbol_18 (_ BitVec 32))
(declare-const symbol_40 (_ BitVec 32))
(declare-const symbol_30 (_ BitVec 32))
(declare-const symbol_21 (_ BitVec 32))
(declare-const symbol_19 (_ BitVec 32))
(declare-const symbol_43 (_ BitVec 32))
(declare-const symbol_2 (_ BitVec 32))
(declare-const symbol_51 (_ BitVec 32))
(declare-const symbol_13 (_ BitVec 32))
(declare-const symbol_53 (_ BitVec 32))
(declare-const symbol_59 (_ BitVec 32))
(declare-const symbol_8 (_ BitVec 32))
(assert (not (= symbol_65 (_ bv4 32))))
(assert (not (not (= symbol_63 (_ bv4 32)))))
(assert (not (not (= symbol_61 (_ bv4 32)))))
(assert (not (not (= symbol_59 (_ bv4 32)))))
(assert (not (not (= symbol_57 (_ bv4 32)))))
(assert (not (not (= symbol_55 (_ bv4 32)))))
(assert (not (not (= symbol_53 (_ bv4 32)))))
(assert (not (not (= symbol_51 (_ bv4 32)))))
(assert (not (not (= symbol_49 (_ bv4 32)))))
(assert (not (not (= symbol_47 (_ bv4 32)))))
(assert (not (not (= symbol_45 (_ bv4 32)))))
(assert (not (not (= symbol_43 (_ bv4 32)))))
(assert (not (not (= symbol_40 (_ bv4 32)))))
(assert (not (not (= symbol_38 (_ bv4 32)))))
(assert (not (not (= symbol_36 (_ bv4 32)))))
(assert (not (not (= symbol_34 (_ bv4 32)))))
(assert (not (not (= symbol_32 (_ bv4 32)))))
(assert (not (not (= symbol_30 (_ bv4 32)))))
(assert (not (not (= symbol_28 (_ bv4 32)))))
(assert (not (not (= symbol_27 (_ bv4 32)))))
(assert (not (not (= symbol_25 (_ bv4 32)))))
(assert (not (not (= symbol_23 (_ bv4 32)))))
(assert (not (not (= symbol_21 (_ bv4 32)))))
(assert (not (not (= symbol_19 (_ bv4 32)))))
(assert (not (not (= symbol_18 (_ bv4 32)))))
(assert (not (not (= symbol_15 (_ bv4 32)))))
(assert (not (not (= symbol_13 (_ bv4 32)))))
(assert (not (not (= symbol_11 (_ bv4 32)))))
(assert (not (not (= symbol_8 (_ bv4 32)))))
(assert (not (not (= symbol_6 (_ bv4 32)))))
(assert (not (not (= symbol_4 (_ bv4 32)))))
(assert (not (not (= symbol_2 (_ bv4 32)))))
(assert (not (not (= symbol_0 (_ bv6 32)))))
(assert (not (= symbol_0 (_ bv4 32))))
(check-sat)